4 
5  27 50 
6  13 28 43 58 
7  13 28 43 58 
8  13 28 43 58 
9  13 28 43 58 
10  13 28 43 58 
11  13 28 43 58 
12  13 28 43 58 
13  13 29 44 59 
14  14 26 41 56 
15  10 25 40 55 
16  10 25 40 55 
17  10 25 40 55 
18  10 28 43 
19  02 19 33 48 
20  03 18 33 48 
21  03 18 35 50 
22  05 20 34 49 
23  04 17 41 
0 
